5 5
4 3 5 10 4 3 3 18 5 2 3 5 17 4 2 3 7 1 16 4 1 8 3 6 4 19 5 6 3 3 14 5 8 1 18
8 2 3 19 1 7 2 5 17 4 2 5 1 6 5 3 3 2 4 8 2 11 2 5 10 1 13 4 3 17 4 4 5 8 2 8 5 2 15 4 2 1 11 3 18 5 2 3 1 11 2 14 4 9 2 5 7 3 10
5 3 1 10 5 7 3 4 4 5 5 2 16 4 9 3 18 1 5 11 3 1 16 3 12 4 12 3 4 14 1 13 2 12
6 2 5 3 2 4 4 3 6 2 9 1 19 5 9 5 1 3 3 19 5 17 2 3 4 19 1 2 10 4 1 14 4 7 2 9 5 10 3 2 4 1 2 4 5
5 2 3 12 5 17 1 3 16 4 5 15 2 19 3 5 1 3 1 1 6 5 1 11 5 14 2 6 4 7 3 11